
******************************************************************************
This program contains Ipopt, a library for large-scale nonlinear optimization.
 Ipopt is released as open source code under the Eclipse Public License (EPL).
         For more information visit http://projects.coin-or.org/Ipopt
******************************************************************************

This is Ipopt version 3.12.6, running with linear solver ma57.

Number of nonzeros in equality constraint Jacobian...:        0
Number of nonzeros in inequality constraint Jacobian.:        0
Number of nonzeros in Lagrangian Hessian.............:       10

Total number of variables............................:        4
                     variables with only lower bounds:        3
                variables with lower and upper bounds:        0
                     variables with only upper bounds:        0
Total number of equality constraints.................:        0
Total number of inequality constraints...............:        0
        inequality constraints with only lower bounds:        0
   inequality constraints with lower and upper bounds:        0
        inequality constraints with only upper bounds:        0

iter    objective    inf_pr   inf_du lg(mu)  ||d||  lg(rg) alpha_du alpha_pr  ls
   0  1.4077852e+04 0.00e+00 1.00e+02  -1.0 0.00e+00    -  0.00e+00 0.00e+00   0
   1  1.2708557e+04 0.00e+00 9.38e+01  -1.0 9.39e-01   2.0 9.27e-01 1.00e+00f  1
   2  9.5080862e+03 0.00e+00 1.19e+02  -1.0 2.33e+00   1.5 1.00e+00 1.00e+00f  1
   3  5.4703300e+03 0.00e+00 4.97e+01  -1.0 4.49e+00   1.0 1.00e+00 1.00e+00f  1
   4  4.5371762e+03 0.00e+00 4.17e+01  -1.0 1.41e+00   1.5 1.00e+00 1.00e+00f  1
   5  4.0383124e+03 0.00e+00 7.82e+01  -1.0 2.89e+00   1.0 1.00e+00 2.82e-01f  2
   6  3.4335970e+03 0.00e+00 3.11e+01  -1.0 1.18e+00   1.4 1.00e+00 1.00e+00f  1
   7  2.6706278e+03 0.00e+00 1.86e+01  -1.0 2.12e+00   0.9 1.00e+00 1.00e+00f  1
   8  2.2659721e+03 0.00e+00 1.37e+00  -1.0 3.04e+00    -  1.00e+00 1.00e+00f  1
   9  2.2659620e+03 0.00e+00 7.68e-01  -1.0 1.74e-01    -  1.00e+00 1.00e+00f  1
iter    objective    inf_pr   inf_du lg(mu)  ||d||  lg(rg) alpha_du alpha_pr  ls
  10  2.2659587e+03 0.00e+00 4.39e-02  -1.7 5.55e-02    -  1.00e+00 1.00e+00f  1
  11  2.2659583e+03 0.00e+00 6.86e-02  -2.5 1.17e-01    -  1.00e+00 5.00e-01f  2
  12  2.2659590e+03 0.00e+00 1.58e-01  -2.5 1.46e-01    -  1.00e+00 5.00e-01f  2
  13  2.2659583e+03 0.00e+00 7.14e-02  -2.5 6.24e-02    -  1.00e+00 1.00e+00f  1
  14  2.2659587e+03 0.00e+00 1.35e-01  -2.5 1.37e-01    -  1.00e+00 5.00e-01f  2
  15  2.2659587e+03 0.00e+00 1.44e-01  -2.5 8.87e-02    -  1.00e+00 1.00e+00f  1
  16  2.2659586e+03 0.00e+00 1.51e-01  -2.5 9.42e-02    -  1.00e+00 1.00e+00f  1
  17  2.2659587e+03 0.00e+00 1.69e-01  -2.5 1.03e-01    -  1.00e+00 1.00e+00f  1
  18  2.2659586e+03 0.00e+00 1.66e-01  -2.5 1.06e-01    -  1.00e+00 1.00e+00f  1
  19  2.2659588e+03 0.00e+00 2.11e-01  -2.5 1.22e-01    -  1.00e+00 1.00e+00f  1
iter    objective    inf_pr   inf_du lg(mu)  ||d||  lg(rg) alpha_du alpha_pr  ls
  20  2.2659585e+03 0.00e+00 1.61e-01  -2.5 1.14e-01    -  1.00e+00 1.00e+00f  1
  21  2.2659594e+03 0.00e+00 3.41e-01  -2.5 1.63e-01    -  1.00e+00 1.00e+00f  1
  22  2.2659583e+03 0.00e+00 9.04e-02  -2.5 1.00e-01    -  1.00e+00 1.00e+00f  1
  23  2.2659595e+03 0.00e+00 3.96e-01  -2.5 3.41e-01    -  1.00e+00 5.00e-01f  2
  24  2.2659583e+03 0.00e+00 9.96e-02  -2.5 1.13e-01    -  1.00e+00 1.00e+00f  1
  25  2.2659596e+03 0.00e+00 4.67e-01  -2.5 3.95e-01    -  1.00e+00 5.00e-01f  2
  26  2.2659582e+03 0.00e+00 1.04e-01  -2.5 1.24e-01    -  1.00e+00 1.00e+00f  1
  27  2.2659600e+03 0.00e+00 6.01e-01  -2.5 4.81e-01    -  1.00e+00 5.00e-01f  2
  28  2.2659582e+03 0.00e+00 8.77e-02  -2.5 1.29e-01    -  1.00e+00 1.00e+00f  1
  29  2.2659585e+03 0.00e+00 3.15e-01  -2.5 6.89e-01    -  1.00e+00 2.50e-01f  3
iter    objective    inf_pr   inf_du lg(mu)  ||d||  lg(rg) alpha_du alpha_pr  ls
  30  2.2659591e+03 0.00e+00 5.30e-01  -2.5 2.71e-01    -  1.00e+00 1.00e+00f  1
  31  2.2659583e+03 0.00e+00 2.06e-01  -2.5 1.93e-01    -  1.00e+00 1.00e+00f  1
  32  2.2659588e+03 0.00e+00 4.90e-01  -2.5 4.82e-01    -  1.00e+00 5.00e-01f  2
  33  2.2659585e+03 0.00e+00 3.64e-01  -2.5 2.59e-01    -  1.00e+00 1.00e+00f  1
  34  2.2659595e+03 0.00e+00 7.89e-01  -2.5 3.73e-01    -  1.00e+00 1.00e+00f  1
  35  2.2659583e+03 0.00e+00 1.99e-01  -2.5 2.26e-01    -  1.00e+00 1.00e+00f  1
  36  2.2659596e+03 0.00e+00 9.50e-01  -2.5 8.00e-01    -  1.00e+00 5.00e-01f  2
  37  2.2659582e+03 0.00e+00 2.03e-01  -2.5 2.47e-01    -  1.00e+00 1.00e+00f  1
  38  2.2659602e+03 0.00e+00 1.26e+00  -2.5 9.89e-01    -  1.00e+00 5.00e-01f  2
  39  2.2659582e+03 0.00e+00 1.60e-01  -2.5 2.52e-01    -  1.00e+00 1.00e+00f  1
iter    objective    inf_pr   inf_du lg(mu)  ||d||  lg(rg) alpha_du alpha_pr  ls
  40  2.2659586e+03 0.00e+00 7.06e-01  -2.5 1.50e+00    -  1.00e+00 2.50e-01f  3
  41  2.2659588e+03 0.00e+00 8.66e-01  -2.5 5.01e-01    -  1.00e+00 1.00e+00f  1
  42  2.2659585e+03 0.00e+00 6.46e-01  -2.5 4.62e-01    -  1.00e+00 1.00e+00f  1
  43  2.2659595e+03 0.00e+00 1.43e+00  -2.5 6.71e-01    -  1.00e+00 1.00e+00f  1
  44  2.2659583e+03 0.00e+00 3.45e-01  -2.5 4.00e-01    -  1.00e+00 1.00e+00f  1
  45  2.2659597e+03 0.00e+00 1.77e+00  -2.5 1.46e+00    -  1.00e+00 5.00e-01f  2
  46  2.2659582e+03 0.00e+00 3.28e-01  -2.5 4.29e-01    -  1.00e+00 1.00e+00f  1
  47  2.2659608e+03 0.00e+00 2.61e+00  -2.5 1.91e+00    -  1.00e+00 5.00e-01f  2
  48  2.2659582e+03 0.00e+00 1.96e-01  -2.5 4.08e-01    -  1.00e+00 1.00e+00f  1
  49  2.2659593e+03 0.00e+00 1.99e+00  -2.5 3.53e+00    -  1.00e+00 2.50e-01f  3
iter    objective    inf_pr   inf_du lg(mu)  ||d||  lg(rg) alpha_du alpha_pr  ls
  50  2.2659583e+03 0.00e+00 6.16e-01  -2.5 6.29e-01    -  1.00e+00 1.00e+00f  1
  51  2.2659591e+03 0.00e+00 1.96e+00  -2.5 1.82e+00    -  1.00e+00 5.00e-01f  2
  52  2.2659583e+03 0.00e+00 8.92e-01  -2.5 7.77e-01    -  1.00e+00 1.00e+00f  1
  53  2.2659587e+03 0.00e+00 1.65e+00  -2.5 1.68e+00    -  1.00e+00 5.00e-01f  2
  54  2.2659587e+03 0.00e+00 1.83e+00  -2.5 1.11e+00    -  1.00e+00 1.00e+00f  1
  55  2.2659586e+03 0.00e+00 1.78e+00  -2.5 1.14e+00    -  1.00e+00 1.00e+00f  1
  56  2.2659588e+03 0.00e+00 2.32e+00  -2.5 1.33e+00    -  1.00e+00 1.00e+00f  1
  57  2.2659585e+03 0.00e+00 1.67e+00  -2.5 1.21e+00    -  1.00e+00 1.00e+00f  1
  58  2.2659596e+03 0.00e+00 3.94e+00  -2.5 1.81e+00    -  1.00e+00 1.00e+00f  1
  59  2.2659582e+03 0.00e+00 8.30e-01  -2.5 1.02e+00    -  1.00e+00 1.00e+00f  1
iter    objective    inf_pr   inf_du lg(mu)  ||d||  lg(rg) alpha_du alpha_pr  ls
  60  2.2659603e+03 0.00e+00 5.38e+00  -2.5 4.18e+00    -  1.00e+00 5.00e-01f  2
  61  2.2659582e+03 0.00e+00 6.24e-01  -2.5 1.03e+00    -  1.00e+00 1.00e+00f  1
  62  2.2659587e+03 0.00e+00 3.15e+00  -2.5 6.54e+00    -  1.00e+00 2.50e-01f  3
  63  2.2659586e+03 0.00e+00 3.14e+00  -2.5 1.97e+00    -  1.00e+00 1.00e+00f  1
  64  2.2659587e+03 0.00e+00 3.57e+00  -2.5 2.16e+00    -  1.00e+00 1.00e+00f  1
  65  2.2659586e+03 0.00e+00 3.41e+00  -2.5 2.21e+00    -  1.00e+00 1.00e+00f  1
  66  2.2659588e+03 0.00e+00 4.60e+00  -2.5 2.61e+00    -  1.00e+00 1.00e+00f  1
  67  2.2659584e+03 0.00e+00 3.10e+00  -2.5 2.31e+00    -  1.00e+00 1.00e+00f  1
  68  2.2659599e+03 0.00e+00 8.36e+00  -2.5 3.65e+00    -  1.00e+00 1.00e+00f  1
  69  2.2659582e+03 0.00e+00 1.31e+00  -2.5 1.86e+00    -  1.00e+00 1.00e+00f  1
iter    objective    inf_pr   inf_du lg(mu)  ||d||  lg(rg) alpha_du alpha_pr  ls
  70  2.2659585e+03 0.00e+00 4.32e+00  -2.5 9.56e+00    -  1.00e+00 2.50e-01f  3
  71  2.2659593e+03 0.00e+00 8.21e+00  -2.5 4.02e+00    -  1.00e+00 1.00e+00f  1
  72  2.2659583e+03 0.00e+00 2.48e+00  -2.5 2.60e+00    -  1.00e+00 1.00e+00f  1
  73  2.2659592e+03 0.00e+00 8.76e+00  -2.5 7.96e+00    -  1.00e+00 5.00e-01f  2
  74  2.2659583e+03 0.00e+00 3.28e+00  -2.5 3.12e+00    -  1.00e+00 1.00e+00f  1
  75  2.2659588e+03 0.00e+00 8.07e+00  -2.5 7.90e+00    -  1.00e+00 5.00e-01f  2
  76  2.2659585e+03 0.00e+00 5.67e+00  -2.5 4.14e+00    -  1.00e+00 1.00e+00f  1
  77  2.2659597e+03 0.00e+00 1.37e+01  -2.5 6.22e+00    -  1.00e+00 1.00e+00f  1
  78  2.2659582e+03 0.00e+00 2.75e+00  -2.5 3.47e+00    -  1.00e+00 1.00e+00f  1
  79  2.2659604e+03 0.00e+00 1.93e+01  -2.5 1.47e+01    -  1.00e+00 5.00e-01f  2
iter    objective    inf_pr   inf_du lg(mu)  ||d||  lg(rg) alpha_du alpha_pr  ls
  80  2.2659582e+03 0.00e+00 1.90e+00  -2.5 3.42e+00    -  1.00e+00 1.00e+00f  1
  81  2.2659589e+03 0.00e+00 1.24e+01  -2.5 2.44e+01    -  1.00e+00 2.50e-01f  3
  82  2.2659584e+03 0.00e+00 8.17e+00  -2.5 6.05e+00    -  1.00e+00 1.00e+00f  1
  83  2.2659598e+03 0.00e+00 2.10e+01  -2.5 9.35e+00    -  1.00e+00 1.00e+00f  1
  84  2.2659582e+03 0.00e+00 3.68e+00  -2.5 4.97e+00    -  1.00e+00 1.00e+00f  1
  85  2.2659612e+03 0.00e+00 3.29e+01  -2.5 2.33e+01    -  1.00e+00 5.00e-01f  2
  86  2.2659582e+03 0.00e+00 1.88e+00  -2.5 4.60e+00    -  1.00e+00 1.00e+00f  1
  87  2.2659600e+03 0.00e+00 2.97e+01  -2.5 4.72e+01    -  1.00e+00 2.50e-01f  3
  88  2.2659582e+03 0.00e+00 4.21e+00  -2.5 6.22e+00    -  1.00e+00 1.00e+00f  1
  89  2.2659585e+03 0.00e+00 1.51e+01  -2.5 3.32e+01    -  1.00e+00 2.50e-01f  3
iter    objective    inf_pr   inf_du lg(mu)  ||d||  lg(rg) alpha_du alpha_pr  ls
  90  2.2659591e+03 0.00e+00 2.57e+01  -2.5 1.31e+01    -  1.00e+00 1.00e+00f  1
  91  2.2659583e+03 0.00e+00 9.71e+00  -2.5 9.25e+00    -  1.00e+00 1.00e+00f  1
  92  2.2659588e+03 0.00e+00 2.41e+01  -2.5 2.36e+01    -  1.00e+00 5.00e-01f  2
  93  2.2659584e+03 0.00e+00 1.66e+01  -2.5 1.22e+01    -  1.00e+00 1.00e+00f  1
  94  2.2659597e+03 0.00e+00 4.14e+01  -2.5 1.87e+01    -  1.00e+00 1.00e+00f  1
  95  2.2659582e+03 0.00e+00 7.73e+00  -2.5 1.01e+01    -  1.00e+00 1.00e+00f  1
  96  2.2659608e+03 0.00e+00 6.17e+01  -2.5 4.54e+01    -  1.00e+00 5.00e-01f  2
  97  2.2659582e+03 0.00e+00 4.58e+00  -2.5 9.64e+00    -  1.00e+00 1.00e+00f  1
  98  2.2659593e+03 0.00e+00 4.68e+01  -2.5 8.35e+01    -  1.00e+00 2.50e-01f  3
  99  2.2659583e+03 0.00e+00 1.44e+01  -2.5 1.48e+01    -  1.00e+00 1.00e+00f  1
iter    objective    inf_pr   inf_du lg(mu)  ||d||  lg(rg) alpha_du alpha_pr  ls
 100  2.2659590e+03 0.00e+00 4.59e+01  -2.5 4.30e+01    -  1.00e+00 5.00e-01f  2
 101  2.2659583e+03 0.00e+00 2.08e+01  -2.5 1.83e+01    -  1.00e+00 1.00e+00f  1
 102  2.2659586e+03 0.00e+00 3.85e+01  -2.5 3.95e+01    -  1.00e+00 5.00e-01f  2
 103  2.2659587e+03 0.00e+00 4.25e+01  -2.5 2.61e+01    -  1.00e+00 1.00e+00f  1
 104  2.2659586e+03 0.00e+00 4.15e+01  -2.5 2.69e+01    -  1.00e+00 1.00e+00f  1
 105  2.2659588e+03 0.00e+00 5.34e+01  -2.5 3.11e+01    -  1.00e+00 1.00e+00f  1
 106  2.2659585e+03 0.00e+00 3.94e+01  -2.5 2.86e+01    -  1.00e+00 1.00e+00f  1
 107  2.2659595e+03 0.00e+00 8.80e+01  -2.5 4.17e+01    -  1.00e+00 1.00e+00f  1
 108  2.2659582e+03 0.00e+00 2.07e+01  -2.5 2.45e+01    -  1.00e+00 1.00e+00f  1
 109  2.2659597e+03 0.00e+00 1.10e+02  -2.5 9.14e+01    -  1.00e+00 5.00e-01f  2
iter    objective    inf_pr   inf_du lg(mu)  ||d||  lg(rg) alpha_du alpha_pr  ls
 110  2.2659582e+03 0.00e+00 1.90e+01  -2.5 2.60e+01    -  1.00e+00 1.00e+00f  1
 111  2.2659610e+03 0.00e+00 1.68e+02  -2.5 1.21e+02    -  1.00e+00 5.00e-01f  2
 112  2.2659582e+03 0.00e+00 9.94e+00  -2.5 2.40e+01    -  1.00e+00 1.00e+00f  1
 113  2.2659597e+03 0.00e+00 1.45e+02  -2.5 2.40e+02    -  1.00e+00 2.50e-01f  3
 114  2.2659582e+03 0.00e+00 2.42e+01  -2.5 3.33e+01    -  1.00e+00 1.00e+00f  1
 115  2.2659609e+03 0.00e+00 2.15e+02  -2.5 1.56e+02    -  1.00e+00 5.00e-01f  2
 116  2.2659582e+03 0.00e+00 1.27e+01  -2.5 3.08e+01    -  1.00e+00 1.00e+00f  1
 117  2.2659597e+03 0.00e+00 1.83e+02  -2.5 3.06e+02    -  1.00e+00 2.50e-01f  3
 118  2.2659582e+03 0.00e+00 3.13e+01  -2.5 4.29e+01    -  1.00e+00 1.00e+00f  1
 119  2.2659607e+03 0.00e+00 2.65e+02  -2.5 1.97e+02    -  1.00e+00 5.00e-01f  2
iter    objective    inf_pr   inf_du lg(mu)  ||d||  lg(rg) alpha_du alpha_pr  ls
 120  2.2659582e+03 0.00e+00 1.76e+01  -2.5 4.01e+01    -  1.00e+00 1.00e+00f  1
 121  2.2659593e+03 0.00e+00 2.07e+02  -2.5 3.68e+02    -  1.00e+00 2.50e-01f  3
 122  2.2659582e+03 0.00e+00 5.14e+01  -2.5 5.95e+01    -  1.00e+00 1.00e+00f  1
 123  2.2659593e+03 0.00e+00 2.27e+02  -2.5 2.03e+02    -  1.00e+00 5.00e-01f  2
 124  2.2659582e+03 0.00e+00 5.66e+01  -2.5 6.64e+01    -  1.00e+00 1.00e+00f  1
 125  2.2659593e+03 0.00e+00 2.59e+02  -2.5 2.31e+02    -  1.00e+00 5.00e-01f  2
 126  2.2659582e+03 0.00e+00 6.01e+01  -2.5 7.32e+01    -  1.00e+00 1.00e+00f  1
 127  2.2659594e+03 0.00e+00 3.08e+02  -2.5 2.68e+02    -  1.00e+00 5.00e-01f  2
 128  2.2659582e+03 0.00e+00 5.78e+01  -2.5 7.81e+01    -  1.00e+00 1.00e+00f  1
 129  2.2659600e+03 0.00e+00 4.21e+02  -2.5 3.36e+02    -  1.00e+00 5.00e-01f  2
iter    objective    inf_pr   inf_du lg(mu)  ||d||  lg(rg) alpha_du alpha_pr  ls
 130  2.2659582e+03 0.00e+00 3.91e+01  -2.5 7.55e+01    -  1.00e+00 1.00e+00f  1
 131  2.2659587e+03 0.00e+00 2.56e+02  -2.5 5.40e+02    -  1.00e+00 2.50e-01f  3
 132  2.2659584e+03 0.00e+00 1.74e+02  -2.5 1.35e+02    -  1.00e+00 1.00e+00f  1
 133  2.2659592e+03 0.00e+00 3.97e+02  -2.5 1.99e+02    -  1.00e+00 1.00e+00f  1
 134  2.2659582e+03 0.00e+00 8.68e+01  -2.5 1.12e+02    -  1.00e+00 1.00e+00f  1
 135  2.2659593e+03 0.00e+00 4.80e+02  -2.5 4.28e+02    -  1.00e+00 5.00e-01f  2
 136  2.2659582e+03 0.00e+00 7.81e+01  -2.5 1.17e+02    -  1.00e+00 1.00e+00f  1
 137  2.2659600e+03 0.00e+00 6.81e+02  -2.5 5.45e+02    -  1.00e+00 5.00e-01f  2
 138  2.2659582e+03 0.00e+00 4.40e+01  -2.5 1.07e+02    -  1.00e+00 1.00e+00f  1
 139  2.2659587e+03 0.00e+00 4.52e+02  -2.5 9.27e+02    -  1.00e+00 2.50e-01f  3
iter    objective    inf_pr   inf_du lg(mu)  ||d||  lg(rg) alpha_du alpha_pr  ls
 140  2.2659582e+03 0.00e+00 1.60e+02  -2.5 1.72e+02    -  1.00e+00 1.00e+00f  1
 141  2.2659585e+03 0.00e+00 3.65e+02  -2.5 4.18e+02    -  1.00e+00 5.00e-01f  2
 142  2.2659583e+03 0.00e+00 2.80e+02  -2.5 2.27e+02    -  1.00e+00 1.00e+00f  1
 143  2.2659586e+03 0.00e+00 4.91e+02  -2.5 2.97e+02    -  1.00e+00 1.00e+00f  1
 144  2.2659582e+03 0.00e+00 1.73e+02  -2.5 1.99e+02    -  1.00e+00 1.00e+00f  1
 145  2.2659584e+03 0.00e+00 4.00e+02  -2.5 4.87e+02    -  1.00e+00 5.00e-01f  2
 146  2.2659583e+03 0.00e+00 2.95e+02  -2.5 2.59e+02    -  1.00e+00 1.00e+00f  1
 147  2.2659585e+03 0.00e+00 5.14e+02  -2.5 3.38e+02    -  1.00e+00 1.00e+00f  1
 148  2.2659582e+03 0.00e+00 1.72e+02  -2.5 2.19e+02    -  1.00e+00 1.00e+00f  1
 149  2.2659583e+03 0.00e+00 3.82e+02  -2.5 5.23e+02    -  1.00e+00 5.00e-01f  2
iter    objective    inf_pr   inf_du lg(mu)  ||d||  lg(rg) alpha_du alpha_pr  ls
 150  2.2659582e+03 0.00e+00 2.89e+02  -2.5 2.81e+02    -  1.00e+00 1.00e+00f  1
 151  2.2659583e+03 0.00e+00 4.10e+02  -2.5 3.34e+02    -  1.00e+00 1.00e+00f  1
 152  2.2659582e+03 0.00e+00 1.78e+02  -2.5 2.37e+02    -  1.00e+00 1.00e+00f  1
 153  2.2659584e+03 0.00e+00 5.79e+02  -2.5 4.05e+02    -  1.00e+00 1.00e+00f  1
 154  2.2659582e+03 0.00e+00 4.31e+01  -2.5 1.39e+02    -  1.00e+00 1.00e+00f  1
 155  2.2659582e+03 0.00e+00 3.00e+02  -2.5 5.65e+02    -  1.00e+00 5.00e-01f  2
 156  2.2659582e+03 0.00e+00 5.94e+01  -2.5 1.50e+02    -  1.00e+00 1.00e+00f  1
 157  2.2659582e+03 0.00e+00 2.19e+02  -2.5 2.67e+02    -  1.00e+00 1.00e+00f  1
 158  2.2659583e+03 0.00e+00 6.30e+00  -2.5 5.57e+01    -  1.00e+00 1.00e+00f  1
 159  2.2659583e+03 0.00e+00 2.41e+01  -2.5 9.08e+01    -  1.00e+00 1.00e+00f  1
iter    objective    inf_pr   inf_du lg(mu)  ||d||  lg(rg) alpha_du alpha_pr  ls
 160  2.2659583e+03 0.00e+00 2.90e-02  -2.5 4.23e+00    -  1.00e+00 1.00e+00f  1
 161  2.2659583e+03 0.00e+00 1.54e-03  -2.5 7.32e-01    -  1.00e+00 1.00e+00f  1
 162  2.2659582e+03 0.00e+00 7.49e-02  -3.8 9.59e+00    -  1.00e+00 1.00e+00f  1
 163  2.2659582e+03 0.00e+00 2.78e-08  -3.8 4.48e-03    -  1.00e+00 1.00e+00f  1
 164  2.2659582e+03 0.00e+00 2.32e-04  -5.7 5.32e-01    -  1.00e+00 1.00e+00f  1
 165  2.2659582e+03 0.00e+00 4.37e-11  -5.7 4.63e-05    -  1.00e+00 1.00e+00f  1
 166  2.2659582e+03 0.00e+00 3.56e-08  -8.6 6.60e-03    -  1.00e+00 1.00e+00f  1
 167  2.2659582e+03 0.00e+00 1.70e-11  -8.6 8.87e-05    -  1.00e+00 1.00e+00f  1

Number of Iterations....: 167

                                   (scaled)                 (unscaled)
Objective...............:   1.5809278045211960e+02    2.2659582203866626e+03
Dual infeasibility......:   1.6961439929441199e-11    2.4310986325749427e-10
Constraint violation....:   0.0000000000000000e+00    0.0000000000000000e+00
Complementarity.........:   2.5059035596830582e-09    3.5917343943987134e-08
Overall NLP error.......:   2.5059035596830582e-09    3.5917343943987134e-08


Number of objective function evaluations             = 437
Number of objective gradient evaluations             = 168
Number of equality constraint evaluations            = 0
Number of inequality constraint evaluations          = 0
Number of equality constraint Jacobian evaluations   = 0
Number of inequality constraint Jacobian evaluations = 0
Number of Lagrangian Hessian evaluations             = 167
Total CPU secs in IPOPT (w/o function evaluations)   =      0.043
Total CPU secs in NLP function evaluations           =      0.000

EXIT: Optimal Solution Found.
Note: The following floating-point exceptions are signalling: IEEE_INVALID_FLAG IEEE_DIVIDE_BY_ZERO

 ** SUBROUTINE CUTEST_csetup: Warning. The problem has no general constraints. 
 ** Other tools may be preferable ** 

************************ CUTEst statistics ************************


 Package used            :  IPOPT
 Problem                 :  PALMER3   
 # variables             =               4
 # constraints           =               0
 # objective functions   =        0.6060000E+03
 # objective gradients   =        0.1690000E+03
 # objective Hessians    =        0.1680000E+03
 # Hessian-vector prdct  =        0.0000000E+00
 # constraints functions =        0.0000000E+00
 # constraints gradients =        0.0000000E+00
 # constraints Hessians  =        0.0000000E+00
 Exit code               =               0
 Final f                 =   0.2265958E+04
 Set up time             =            0.00 seconds
 Solve time              =            0.21 seconds


******************************************************************

System Time =       0.0529999994 s.
